c turning on binary mode checking
c parsing input formula with 202048 variables and 780990 clauses
c finished parsing, read 2310154 bytes from proof file
c detected empty clause; start verification via backward checking
c 1896 of 780990 clauses in core                            
c 614 of 93265 lemmas in core using 10820 resolution steps
c 0 RAT lemmas in core; 14 redundant literals in core lemmas
s VERIFIED
c verification time: 0.917 seconds
